benchmarks_CP/INST_36x36/55/inst36x36_55_1.dzn
S=6;
start=[|
-1,	1,	18,	6,	32,	-1,	-1,	-1,	-1,	-1,	-1,	-1,	-1,	-1,	27,	-1,	16,	-1,	4,	-1,	26,	8,	-1,	35,	30,	23,	33,	-1,	-1,	29,	20,	22,	-1,	34,	21,	-1|
19,	-1,	9,	30,	35,	16,	-1,	7,	32,	22,	-1,	10,	11,	36,	34,	3,	-1,	24,	-1,	-1,	-1,	-1,	-1,	-1,	6,	2,	14,	-1,	-1,	4,	28,	25,	1,	15,	18,	-1|
23,	22,	25,	-1,	-1,	-1,	-1,	-1,	14,	-1,	-1,	3,	-1,	-1,	18,	1,	-1,	32,	-1,	5,	6,	-1,	-1,	11,	-1,	28,	8,	36,	21,	15,	-1,	16,	-1,	-1,	31,	17|
27,	-1,	12,	-1,	2,	4,	-1,	16,	-1,	34,	-1,	15,	-1,	30,	21,	-1,	-1,	33,	-1,	3,	-1,	-1,	-1,	25,	-1,	-1,	31,	-1,	24,	-1,	-1,	-1,	26,	-1,	-1,	-1|
-1,	10,	-1,	36,	-1,	-1,	-1,	-1,	-1,	-1,	-1,	-1,	6,	4,	9,	-1,	22,	-1,	19,	32,	-1,	34,	-1,	29,	7,	17,	16,	25,	12,	26,	3,	-1,	8,	5,	30,	-1|
28,	29,	14,	-1,	7,	33,	-1,	8,	-1,	26,	-1,	-1,	5,	-1,	35,	19,	23,	-1,	9,	-1,	-1,	2,	16,	12,	22,	11,	18,	-1,	-1,	3,	13,	32,	-1,	36,	27,	4|
12,	25,	-1,	34,	3,	-1,	7,	6,	-1,	23,	-1,	16,	13,	-1,	-1,	29,	31,	-1,	15,	17,	9,	10,	11,	26,	4,	-1,	19,	-1,	22,	14,	21,	-1,	-1,	18,	-1,	-1|
8,	4,	-1,	24,	-1,	29,	-1,	1,	19,	10,	-1,	13,	36,	3,	-1,	-1,	-1,	34,	32,	-1,	27,	5,	18,	-1,	25,	-1,	35,	33,	28,	21,	22,	6,	-1,	26,	-1,	-1|
-1,	-1,	22,	-1,	-1,	2,	-1,	18,	33,	28,	14,	-1,	32,	8,	1,	-1,	27,	19,	-1,	-1,	-1,	-1,	7,	21,	-1,	-1,	3,	9,	36,	-1,	4,	34,	13,	-1,	-1,	10|
14,	13,	28,	-1,	27,	9,	-1,	-1,	25,	5,	4,	24,	10,	-1,	16,	15,	-1,	-1,	-1,	6,	-1,	-1,	3,	36,	23,	26,	-1,	31,	8,	-1,	29,	-1,	32,	35,	19,	-1|
15,	-1,	21,	16,	33,	36,	-1,	11,	-1,	-1,	3,	-1,	-1,	35,	2,	-1,	5,	17,	29,	25,	19,	22,	14,	4,	-1,	30,	1,	-1,	10,	-1,	7,	23,	31,	20,	12,	24|
18,	-1,	-1,	31,	19,	10,	-1,	-1,	-1,	17,	29,	-1,	14,	23,	22,	4,	-1,	-1,	-1,	-1,	-1,	16,	-1,	1,	-1,	-1,	20,	24,	-1,	6,	-1,	36,	30,	9,	5,	-1|
-1,	12,	-1,	32,	-1,	20,	13,	-1,	-1,	29,	-1,	-1,	-1,	-1,	-1,	-1,	35,	6,	17,	36,	3,	-1,	-1,	7,	9,	24,	-1,	34,	5,	33,	27,	15,	16,	19,	23,	22|
-1,	-1,	-1,	35,	-1,	-1,	-1,	-1,	8,	1,	11,	-1,	26,	14,	20,	-1,	19,	-1,	-1,	-1,	32,	15,	30,	-1,	36,	-1,	-1,	-1,	-1,	28,	-1,	5,	-1,	29,	-1,	33|
-1,	18,	-1,	11,	-1,	6,	14,	3,	-1,	19,	-1,	35,	-1,	9,	-1,	-1,	7,	-1,	1,	20,	34,	4,	21,	-1,	-1,	-1,	29,	-1,	15,	25,	-1,	12,	-1,	24,	28,	36|
26,	-1,	19,	-1,	5,	1,	17,	-1,	-1,	7,	-1,	-1,	18,	15,	-1,	27,	34,	-1,	10,	-1,	-1,	-1,	-1,	24,	31,	8,	32,	-1,	-1,	16,	14,	13,	-1,	-1,	-1,	25|
-1,	-1,	2,	-1,	28,	34,	-1,	9,	-1,	15,	-1,	-1,	-1,	-1,	-1,	12,	32,	16,	-1,	-1,	22,	29,	25,	13,	3,	1,	-1,	4,	-1,	-1,	8,	11,	-1,	-1,	6,	26|
-1,	33,	29,	15,	25,	7,	-1,	27,	6,	-1,	32,	34,	21,	11,	-1,	5,	-1,	-1,	-1,	9,	-1,	-1,	-1,	16,	-1,	14,	-1,	13,	-1,	-1,	-1,	-1,	3,	30,	4,	-1|
-1,	-1,	7,	23,	20,	27,	18,	34,	-1,	-1,	25,	6,	-1,	17,	-1,	-1,	3,	10,	13,	-1,	4,	32,	35,	28,	-1,	22,	5,	21,	11,	-1,	2,	-1,	12,	1,	-1,	9|
34,	21,	10,	-1,	17,	-1,	-1,	-1,	35,	3,	-1,	-1,	-1,	-1,	-1,	-1,	-1,	-1,	26,	1,	25,	12,	-1,	14,	33,	-1,	-1,	-1,	13,	-1,	5,	-1,	-1,	-1,	24,	-1|
-1,	24,	-1,	-1,	-1,	30,	11,	5,	-1,	2,	-1,	-1,	33,	34,	-1,	36,	21,	-1,	16,	-1,	-1,	-1,	9,	15,	-1,	35,	23,	14,	-1,	-1,	-1,	-1,	25,	-1,	-1,	32|
13,	31,	-1,	8,	12,	28,	15,	-1,	1,	-1,	-1,	19,	-1,	-1,	25,	20,	-1,	9,	24,	11,	7,	-1,	-1,	34,	-1,	-1,	-1,	26,	-1,	30,	23,	33,	21,	16,	-1,	-1|
4,	32,	15,	-1,	11,	14,	-1,	12,	-1,	8,	-1,	-1,	35,	18,	13,	-1,	2,	-1,	-1,	21,	-1,	-1,	-1,	6,	-1,	3,	-1,	-1,	-1,	27,	-1,	-1,	34,	-1,	-1,	-1|
25,	19,	-1,	-1,	-1,	-1,	-1,	23,	30,	-1,	13,	20,	-1,	-1,	4,	32,	11,	5,	18,	22,	-1,	-1,	27,	-1,	1,	29,	-1,	-1,	-1,	-1,	17,	-1,	35,	-1,	-1,	-1|
-1,	6,	16,	-1,	26,	18,	33,	24,	23,	13,	-1,	-1,	2,	28,	-1,	25,	-1,	29,	-1,	-1,	17,	-1,	22,	-1,	5,	-1,	9,	15,	30,	8,	35,	-1,	14,	-1,	-1,	-1|
32,	11,	30,	22,	-1,	-1,	-1,	31,	-1,	36,	-1,	-1,	12,	24,	19,	14,	9,	-1,	-1,	-1,	-1,	13,	8,	10,	17,	-1,	-1,	-1,	20,	7,	-1,	-1,	29,	-1,	-1,	-1|
2,	28,	34,	-1,	-1,	-1,	-1,	-1,	-1,	18,	-1,	26,	27,	-1,	-1,	7,	1,	-1,	25,	15,	24,	-1,	12,	-1,	11,	33,	-1,	29,	-1,	10,	30,	-1,	36,	-1,	13,	5|
20,	15,	27,	3,	24,	-1,	21,	29,	2,	-1,	8,	-1,	17,	26,	-1,	34,	36,	-1,	5,	-1,	-1,	-1,	-1,	23,	32,	13,	-1,	-1,	25,	-1,	11,	-1,	6,	-1,	7,	16|
-1,	7,	-1,	-1,	10,	-1,	-1,	-1,	-1,	-1,	-1,	12,	-1,	31,	-1,	22,	15,	8,	-1,	-1,	16,	-1,	-1,	-1,	24,	6,	36,	-1,	14,	1,	18,	-1,	23,	-1,	9,	-1|
-1,	-1,	8,	12,	-1,	-1,	-1,	10,	-1,	25,	-1,	4,	-1,	13,	-1,	-1,	30,	-1,	27,	-1,	36,	11,	6,	33,	-1,	-1,	26,	-1,	23,	2,	24,	1,	28,	31,	22,	-1|
24,	-1,	5,	28,	-1,	12,	10,	-1,	22,	-1,	7,	-1,	-1,	6,	-1,	-1,	25,	26,	-1,	-1,	15,	17,	23,	9,	-1,	20,	30,	11,	-1,	36,	-1,	-1,	19,	-1,	-1,	-1|
-1,	-1,	6,	-1,	-1,	-1,	19,	-1,	-1,	12,	-1,	-1,	4,	10,	3,	11,	-1,	-1,	33,	8,	-1,	-1,	34,	-1,	21,	-1,	-1,	-1,	-1,	-1,	-1,	20,	22,	23,	26,	-1|
16,	34,	-1,	4,	-1,	8,	1,	17,	3,	-1,	-1,	-1,	-1,	-1,	-1,	-1,	-1,	27,	7,	-1,	21,	25,	-1,	-1,	35,	18,	-1,	-1,	26,	22,	10,	-1,	-1,	-1,	29,	-1|
9,	-1,	26,	-1,	22,	11,	2,	21,	27,	6,	23,	-1,	1,	16,	-1,	18,	24,	20,	14,	13,	35,	-1,	-1,	19,	-1,	25,	-1,	7,	33,	-1,	-1,	4,	15,	17,	-1,	8|
35,	17,	-1,	-1,	21,	-1,	34,	15,	-1,	-1,	-1,	36,	-1,	2,	-1,	23,	8,	28,	-1,	27,	5,	26,	20,	22,	14,	-1,	24,	6,	-1,	19,	-1,	-1,	-1,	33,	-1,	13|
7,	20,	-1,	-1,	-1,	-1,	-1,	26,	11,	9,	31,	25,	-1,	-1,	17,	21,	29,	22,	-1,	16,	1,	-1,	-1,	-1,	-1,	4,	13,	28,	3,	23,	-1,	-1,	-1,	-1,	2,	-1|];
